c 1 2 3 4 5 6 7 8 9 86 10 87 11 91 54 23 55 24 56 25 57 26 58 27 59 28 60 29 61 30 62 31 63 32 64 33 12 13 14 15 16 17 18 19 20 21 22 34 35 36 37 38 39 40 41 42 43 44 45 46 47 48 49 50 51 52 53 65 66 67 68 69 70 71 72 73 74 75 76 77 78 79 80 81 82 83 84 85 88 89 90 92 
p wcnf 275 92 20
20 -1 12 
20 -2 13 
20 -3 14 
20 -4 15 
20 -5 16 
20 -6 17 
20 -7 18 
20 -8 19 
20 -9 20 
20 -10 21 
20 -11 22 
20 -23 1 
20 -24 1 
20 -25 1 
20 -26 1 
20 -27 1 
20 -28 1 
20 -29 1 
20 -30 1 
20 -31 1 
20 -32 1 
20 -33 1 
20 -23 34 
20 -23 35 
20 -23 36 
20 -23 37 
20 -23 38 
20 -23 39 
20 -23 40 
20 -23 41 
20 -23 42 
20 -23 43 
20 -24 35 
20 -24 36 
20 -24 37 
20 -24 38 
20 -24 39 
20 -24 40 
20 -24 41 
20 -24 42 
20 -24 43 
20 -24 44 
20 -25 36 
20 -25 37 
20 -25 38 
20 -25 39 
20 -25 40 
20 -25 41 
20 -25 42 
20 -25 43 
20 -25 44 
20 -25 45 
20 -26 37 
20 -26 38 
20 -26 39 
20 -26 40 
20 -26 41 
20 -26 42 
20 -26 43 
20 -26 44 
20 -26 45 
20 -26 46 
20 -27 38 
20 -27 39 
20 -27 40 
20 -27 41 
20 -27 42 
20 -27 43 
20 -27 44 
20 -27 45 
20 -27 46 
20 -27 47 
20 -28 39 
20 -28 40 
20 -28 41 
20 -28 42 
20 -28 43 
20 -28 44 
20 -28 45 
20 -28 46 
20 -28 47 
20 -28 48 
20 -29 40 
20 -29 41 
20 -29 42 
20 -29 43 
20 -29 44 
20 -29 45 
20 -29 46 
20 -29 47 
20 -29 48 
20 -29 49 
20 -30 41 
20 -30 42 
20 -30 43 
20 -30 44 
20 -30 45 
20 -30 46 
20 -30 47 
20 -30 48 
20 -30 49 
20 -30 50 
20 -31 42 
20 -31 43 
20 -31 44 
20 -31 45 
20 -31 46 
20 -31 47 
20 -31 48 
20 -31 49 
20 -31 50 
20 -31 51 
20 -32 43 
20 -32 44 
20 -32 45 
20 -32 46 
20 -32 47 
20 -32 48 
20 -32 49 
20 -32 50 
20 -32 51 
20 -32 52 
20 -33 44 
20 -33 45 
20 -33 46 
20 -33 47 
20 -33 48 
20 -33 49 
20 -33 50 
20 -33 51 
20 -33 52 
20 -33 53 
20 -54 1 
20 -55 1 
20 -56 1 
20 -57 1 
20 -58 1 
20 -59 1 
20 -60 1 
20 -61 1 
20 -62 1 
20 -63 1 
20 -64 1 
20 -54 65 
20 -54 66 
20 -54 67 
20 -54 68 
20 -54 69 
20 -54 70 
20 -54 71 
20 -54 72 
20 -54 73 
20 -54 74 
20 -54 75 
20 -55 66 
20 -55 67 
20 -55 68 
20 -55 69 
20 -55 70 
20 -55 71 
20 -55 72 
20 -55 73 
20 -55 74 
20 -55 75 
20 -55 76 
20 -56 67 
20 -56 68 
20 -56 69 
20 -56 70 
20 -56 71 
20 -56 72 
20 -56 73 
20 -56 74 
20 -56 75 
20 -56 76 
20 -56 77 
20 -57 68 
20 -57 69 
20 -57 70 
20 -57 71 
20 -57 72 
20 -57 73 
20 -57 74 
20 -57 75 
20 -57 76 
20 -57 77 
20 -57 78 
20 -58 69 
20 -58 70 
20 -58 71 
20 -58 72 
20 -58 73 
20 -58 74 
20 -58 75 
20 -58 76 
20 -58 77 
20 -58 78 
20 -58 79 
20 -59 70 
20 -59 71 
20 -59 72 
20 -59 73 
20 -59 74 
20 -59 75 
20 -59 76 
20 -59 77 
20 -59 78 
20 -59 79 
20 -59 80 
20 -60 71 
20 -60 72 
20 -60 73 
20 -60 74 
20 -60 75 
20 -60 76 
20 -60 77 
20 -60 78 
20 -60 79 
20 -60 80 
20 -60 81 
20 -61 72 
20 -61 73 
20 -61 74 
20 -61 75 
20 -61 76 
20 -61 77 
20 -61 78 
20 -61 79 
20 -61 80 
20 -61 81 
20 -61 82 
20 -62 73 
20 -62 74 
20 -62 75 
20 -62 76 
20 -62 77 
20 -62 78 
20 -62 79 
20 -62 80 
20 -62 81 
20 -62 82 
20 -62 83 
20 -63 74 
20 -63 75 
20 -63 76 
20 -63 77 
20 -63 78 
20 -63 79 
20 -63 80 
20 -63 81 
20 -63 82 
20 -63 83 
20 -63 84 
20 -64 75 
20 -64 76 
20 -64 77 
20 -64 78 
20 -64 79 
20 -64 80 
20 -64 81 
20 -64 82 
20 -64 83 
20 -64 84 
20 -64 85 
20 -86 23 
20 -87 23 
20 -86 88 
20 -86 89 
20 -87 89 
20 -87 90 
20 -91 54 86 
20 -91 92 
20 23 24 25 26 27 28 29 30 31 32 33 54 55 56 57 58 59 60 61 62 63 64 
20 23 24 25 26 27 28 29 30 31 32 33 54 55 56 57 58 59 60 61 62 63 64 86 87 
10 91 
